presolving:
(round 1, fast)       110 del vars, 110 del conss, 0 add conss, 10051 chg bounds, 0 chg sides, 0 chg coeffs, 0 upgd conss, 35 impls, 4998 clqs
   (0.0s) running MILP presolver
   (0.1s) MILP presolver found nothing
(round 2, exhaustive) 110 del vars, 110 del conss, 0 add conss, 10051 chg bounds, 0 chg sides, 0 chg coeffs, 5141 upgd conss, 35 impls, 4998 clqs
   (0.1s) probing: 59/5090 (1.2%) - 0 fixings, 0 aggregations, 17 implications, 0 bound changes
   (0.1s) probing aborted: 50/50 successive totally useless probings
   (0.1s) symmetry computation started: requiring (bin +, int -, cont +), (fixed: bin -, int +, cont -)
   (0.1s) no symmetry present
presolving (3 rounds: 3 fast, 2 medium, 2 exhaustive):
 110 deleted vars, 110 deleted constraints, 0 added constraints, 10051 tightened bounds, 0 added holes, 0 changed sides, 15 changed coefficients
 35 implications, 5064 cliques
presolved problem has 5090 variables (5090 bin, 0 int, 0 impl, 0 cont) and 5141 constraints
    101 constraints of type <knapsack>
   4990 constraints of type <setppc>
     50 constraints of type <logicor>
Presolving Time: 0.13

 time | node  | left  |LP iter|LP it/n|mem/heur|mdpt |vars |cons |rows |cuts |sepa|confs|strbr|  dualbound   | primalbound  |  gap   | compl. 
p 0.2s|     1 |     0 |     0 |     - |   locks|   0 |5090 |5142 |5141 |   0 |  0 |   0 |   0 | 6.158883e+03 | 8.943615e+05 |  Large | unknown
p 0.4s|     1 |     0 |    72 |     - | vbounds|   0 |5090 |5146 |5141 |   0 |  0 |   6 |   0 | 6.158883e+03 | 3.958234e+04 | 542.69%| unknown
  1.0s|     1 |     0 |  4935 |     - |    87M |   0 |5090 |5146 |5141 |   0 |  0 |   6 |   0 | 3.368859e+04 | 3.958234e+04 |  17.49%| unknown
  1.8s|     1 |     0 |  9115 |     - |    89M |   0 |5090 |5146 |5142 |   1 |  1 |   6 |   0 | 3.544123e+04 | 3.958234e+04 |  11.68%| unknown
  2.0s|     1 |     0 | 10060 |     - |    90M |   0 |5090 |5146 |5145 |   4 |  2 |   6 |   0 | 3.549901e+04 | 3.958234e+04 |  11.50%| unknown
  2.3s|     1 |     0 | 11026 |     - |    91M |   0 |5090 |5146 |5146 |   5 |  3 |   6 |   0 | 3.557756e+04 | 3.958234e+04 |  11.26%| unknown
  2.4s|     1 |     0 | 11209 |     - |    91M |   0 |5090 |5146 |5147 |   6 |  4 |   6 |   0 | 3.559661e+04 | 3.958234e+04 |  11.20%| unknown
  2.5s|     1 |     0 | 11428 |     - |    92M |   0 |5090 |5146 |5148 |   7 |  5 |   6 |   0 | 3.559939e+04 | 3.958234e+04 |  11.19%| unknown
  3.6s|     1 |     0 | 15721 |     - |    93M |   0 |5090 |5146 |5149 |   8 |  6 |   6 |   0 | 3.578415e+04 | 3.958234e+04 |  10.61%| unknown
  4.2s|     1 |     0 | 18067 |     - |    95M |   0 |5090 |5146 |5150 |   9 |  7 |   6 |   0 | 3.595054e+04 | 3.958234e+04 |  10.10%| unknown
  4.5s|     1 |     0 | 19119 |     - |    96M |   0 |5090 |5146 |5153 |  12 |  8 |   6 |   0 | 3.596743e+04 | 3.958234e+04 |  10.05%| unknown
  4.8s|     1 |     0 | 20209 |     - |    97M |   0 |5090 |5146 |5155 |  14 |  9 |   6 |   0 | 3.601856e+04 | 3.958234e+04 |   9.89%| unknown
  4.9s|     1 |     0 | 20487 |     - |    97M |   0 |5090 |5146 |5156 |  15 | 10 |   6 |   0 | 3.602182e+04 | 3.958234e+04 |   9.88%| unknown
  5.3s|     1 |     0 | 22011 |     - |    98M |   0 |5090 |5146 |5158 |  17 | 11 |   6 |   0 | 3.606426e+04 | 3.958234e+04 |   9.76%| unknown
  5.4s|     1 |     0 | 22310 |     - |    99M |   0 |5090 |5146 |5159 |  18 | 12 |   6 |   0 | 3.607183e+04 | 3.958234e+04 |   9.73%| unknown
 time | node  | left  |LP iter|LP it/n|mem/heur|mdpt |vars |cons |rows |cuts |sepa|confs|strbr|  dualbound   | primalbound  |  gap   | compl. 
  5.5s|     1 |     0 | 22463 |     - |   100M |   0 |5090 |5146 |5161 |  20 | 13 |   6 |   0 | 3.607357e+04 | 3.958234e+04 |   9.73%| unknown
  5.6s|     1 |     0 | 22524 |     - |   100M |   0 |5090 |5146 |5162 |  21 | 14 |   6 |   0 | 3.607425e+04 | 3.958234e+04 |   9.72%| unknown
  5.7s|     1 |     0 | 22806 |     - |   101M |   0 |5090 |5146 |5164 |  23 | 15 |   6 |   0 | 3.607915e+04 | 3.958234e+04 |   9.71%| unknown
  5.8s|     1 |     0 | 23142 |     - |   101M |   0 |5090 |5146 |5166 |  25 | 16 |   6 |   0 | 3.609005e+04 | 3.958234e+04 |   9.68%| unknown
  5.8s|     1 |     0 | 23193 |     - |   102M |   0 |5090 |5146 |5168 |  27 | 17 |   6 |   0 | 3.609035e+04 | 3.958234e+04 |   9.68%| unknown
  6.0s|     1 |     0 | 23744 |     - |   102M |   0 |5090 |5146 |5171 |  30 | 18 |   6 |   0 | 3.610577e+04 | 3.958234e+04 |   9.63%| unknown
  6.1s|     1 |     0 | 24016 |     - |   103M |   0 |5090 |5146 |5175 |  34 | 19 |   6 |   0 | 3.610694e+04 | 3.958234e+04 |   9.63%| unknown
  6.2s|     1 |     0 | 24398 |     - |   103M |   0 |5090 |5146 |5176 |  35 | 20 |   6 |   0 | 3.611126e+04 | 3.958234e+04 |   9.61%| unknown
  6.3s|     1 |     0 | 24507 |     - |   104M |   0 |5090 |5146 |5182 |  41 | 21 |   6 |   0 | 3.611164e+04 | 3.958234e+04 |   9.61%| unknown
  6.3s|     1 |     0 | 24577 |     - |   104M |   0 |5090 |5146 |5182 |  43 | 22 |   6 |   0 | 3.611172e+04 | 3.958234e+04 |   9.61%| unknown
  6.4s|     1 |     0 | 24615 |     - |   104M |   0 |5090 |5146 |5183 |  44 | 23 |   6 |   0 | 3.611189e+04 | 3.958234e+04 |   9.61%| unknown
  6.4s|     1 |     0 | 24758 |     - |   104M |   0 |5090 |5146 |5184 |  45 | 24 |   6 |   0 | 3.611279e+04 | 3.958234e+04 |   9.61%| unknown
  6.6s|     1 |     0 | 25043 |     - |   104M |   0 |5090 |5146 |5185 |  46 | 25 |   6 |   0 | 3.611497e+04 | 3.958234e+04 |   9.60%| unknown
  6.6s|     1 |     0 | 25264 |     - |   104M |   0 |5090 |5146 |5187 |  48 | 26 |   6 |   0 | 3.611838e+04 | 3.958234e+04 |   9.59%| unknown
  6.7s|     1 |     0 | 25366 |     - |   104M |   0 |5090 |5146 |5190 |  51 | 27 |   6 |   0 | 3.611860e+04 | 3.958234e+04 |   9.59%| unknown
 time | node  | left  |LP iter|LP it/n|mem/heur|mdpt |vars |cons |rows |cuts |sepa|confs|strbr|  dualbound   | primalbound  |  gap   | compl. 
  6.8s|     1 |     0 | 25416 |     - |   104M |   0 |5090 |5146 |5191 |  54 | 28 |   6 |   0 | 3.611877e+04 | 3.958234e+04 |   9.59%| unknown
  6.8s|     1 |     0 | 25527 |     - |   104M |   0 |5090 |5146 |5192 |  55 | 29 |   6 |   0 | 3.611939e+04 | 3.958234e+04 |   9.59%| unknown
  6.9s|     1 |     0 | 25553 |     - |   104M |   0 |5090 |5146 |5194 |  57 | 30 |   6 |   0 | 3.611952e+04 | 3.958234e+04 |   9.59%| unknown
  6.9s|     1 |     0 | 25566 |     - |   104M |   0 |5090 |5146 |5195 |  58 | 31 |   6 |   0 | 3.611952e+04 | 3.958234e+04 |   9.59%| unknown
d16.4s|     1 |     0 | 69190 |     - |conflict|   0 |5090 |5146 |5195 |   0 | 33 |   6 |   0 | 3.611952e+04 | 3.930007e+04 |   8.81%| unknown
L16.6s|     1 |     0 | 69190 |     - |    rens|   0 |5090 |5146 |5195 |  58 | 33 |   6 |   0 | 3.611952e+04 | 3.681347e+04 |   1.92%| unknown
 16.6s|     1 |     0 | 69190 |     - |   106M |   0 |5090 |5146 |5195 |  58 | 33 |   6 |   0 | 3.611952e+04 | 3.681347e+04 |   1.92%| unknown
 16.6s|     1 |     0 | 69190 |     - |   106M |   0 |5090 |5146 |4999 |  58 | 33 |   6 |   0 | 3.611952e+04 | 3.681347e+04 |   1.92%| unknown
 16.6s|     1 |     0 | 69253 |     - |   106M |   0 |5090 |4950 |4992 |  59 | 34 |   6 |   0 | 3.611981e+04 | 3.681347e+04 |   1.92%| unknown
 21.5s|     1 |     2 | 69253 |     - |   106M |   0 |5090 |4813 |4992 |  59 | 35 |   6 |  20 | 3.614546e+04 | 3.681347e+04 |   1.85%| unknown
(run 1, node 1) restarting after 333 global fixings of integer variables

(restart) converted 43 cuts from the global cut pool into linear constraints

presolving:
(round 1, fast)       333 del vars, 4 del conss, 0 add conss, 0 chg bounds, 0 chg sides, 355 chg coeffs, 0 upgd conss, 35 impls, 4732 clqs
(round 2, exhaustive) 333 del vars, 4 del conss, 0 add conss, 0 chg bounds, 0 chg sides, 355 chg coeffs, 38 upgd conss, 35 impls, 4732 clqs
presolving (3 rounds: 3 fast, 2 medium, 2 exhaustive):
 333 deleted vars, 4 deleted constraints, 0 added constraints, 0 tightened bounds, 0 added holes, 2 changed sides, 359 changed coefficients
 35 implications, 4732 cliques
presolved problem has 4757 variables (4757 bin, 0 int, 0 impl, 0 cont) and 4852 constraints
    133 constraints of type <knapsack>
   4663 constraints of type <setppc>
      5 constraints of type <linear>
     51 constraints of type <logicor>
Presolving Time: 0.16
transformed 3/5 original solutions to the transformed problem space

 time | node  | left  |LP iter|LP it/n|mem/heur|mdpt |vars |cons |rows |cuts |sepa|confs|strbr|  dualbound   | primalbound  |  gap   | compl. 
 23.2s|     1 |     0 | 79175 |     - |   108M |   0 |4757 |4852 |4851 |   0 |  0 |   6 |  20 | 3.614546e+04 | 3.681347e+04 |   1.85%| unknown
 23.2s|     1 |     0 | 79175 |     - |   108M |   0 |4757 |4852 |4657 |   0 |  0 |   6 |  20 | 3.614546e+04 | 3.681347e+04 |   1.85%| unknown
 23.4s|     1 |     0 | 79619 |     - |   109M |   0 |4757 |4658 |4655 |   3 |  1 |   6 |  20 | 3.614546e+04 | 3.681347e+04 |   1.85%| unknown
 23.5s|     1 |     0 | 79677 |     - |   109M |   0 |4757 |4655 |4658 |   6 |  2 |   6 |  20 | 3.614546e+04 | 3.681347e+04 |   1.85%| unknown
 23.6s|     1 |     0 | 80037 |     - |   110M |   0 |4757 |4655 |4662 |  10 |  3 |   6 |  20 | 3.614546e+04 | 3.681347e+04 |   1.85%| unknown
 23.6s|     1 |     0 | 80037 |     - |   110M |   0 |4757 |4655 |4637 |  10 |  3 |   6 |  20 | 3.614546e+04 | 3.681347e+04 |   1.85%| unknown
 24.0s|     1 |     0 | 81251 |     - |   110M |   0 |4757 |4630 |4638 |  12 |  4 |   6 |  20 | 3.614546e+04 | 3.681347e+04 |   1.85%| unknown
 24.0s|     1 |     0 | 81251 |     - |   110M |   0 |4757 |4630 |4636 |  12 |  4 |   6 |  20 | 3.614546e+04 | 3.681347e+04 |   1.85%| unknown
 24.2s|     1 |     0 | 81797 |     - |   111M |   0 |4757 |4627 |4639 |  15 |  5 |   6 |  20 | 3.614546e+04 | 3.681347e+04 |   1.85%| unknown
 24.5s|     1 |     0 | 82685 |     - |   111M |   0 |4757 |4627 |4640 |  16 |  6 |   6 |  20 | 3.615298e+04 | 3.681347e+04 |   1.83%| unknown
 24.5s|     1 |     0 | 82685 |     - |   111M |   0 |4757 |4627 |4635 |  16 |  6 |   6 |  20 | 3.615298e+04 | 3.681347e+04 |   1.83%| unknown
 24.7s|     1 |     0 | 83058 |     - |   112M |   0 |4757 |4622 |4639 |  20 |  7 |   6 |  20 | 3.616263e+04 | 3.681347e+04 |   1.80%| unknown
 24.7s|     1 |     0 | 83058 |     - |   112M |   0 |4757 |4622 |4630 |  20 |  7 |   6 |  20 | 3.616263e+04 | 3.681347e+04 |   1.80%| unknown
 24.9s|     1 |     0 | 83372 |     - |   113M |   0 |4757 |4613 |4636 |  26 |  8 |   6 |  20 | 3.616728e+04 | 3.681347e+04 |   1.79%| unknown
 24.9s|     1 |     0 | 83427 |     - |   113M |   0 |4757 |4613 |4639 |  29 |  9 |   6 |  20 | 3.616777e+04 | 3.681347e+04 |   1.79%| unknown
 time | node  | left  |LP iter|LP it/n|mem/heur|mdpt |vars |cons |rows |cuts |sepa|confs|strbr|  dualbound   | primalbound  |  gap   | compl. 
 25.0s|     1 |     0 | 83531 |     - |   113M |   0 |4757 |4613 |4643 |  33 | 10 |   6 |  20 | 3.616911e+04 | 3.681347e+04 |   1.78%| unknown
 25.0s|     1 |     0 | 83531 |     - |   113M |   0 |4757 |4613 |4640 |  33 | 10 |   6 |  20 | 3.616911e+04 | 3.681347e+04 |   1.78%| unknown
 25.1s|     1 |     0 | 83629 |     - |   113M |   0 |4757 |4610 |4642 |  35 | 11 |   6 |  20 | 3.616972e+04 | 3.681347e+04 |   1.78%| unknown
 25.1s|     1 |     0 | 83629 |     - |   113M |   0 |4757 |4610 |4639 |  35 | 11 |   6 |  20 | 3.616972e+04 | 3.681347e+04 |   1.78%| unknown
 25.2s|     1 |     0 | 83645 |     - |   113M |   0 |4757 |4607 |4640 |  36 | 12 |   6 |  20 | 3.617026e+04 | 3.681347e+04 |   1.78%| unknown
 25.2s|     1 |     0 | 83708 |     - |   113M |   0 |4757 |4607 |4643 |  39 | 13 |   6 |  20 | 3.617064e+04 | 3.681347e+04 |   1.78%| unknown
 25.3s|     1 |     0 | 83730 |     - |   114M |   0 |4757 |4607 |4627 |  41 | 14 |   6 |  20 | 3.617072e+04 | 3.681347e+04 |   1.78%| unknown
 25.3s|     1 |     0 | 83733 |     - |   114M |   0 |4757 |4607 |4628 |  42 | 15 |   6 |  20 | 3.617073e+04 | 3.681347e+04 |   1.78%| unknown
 25.4s|     1 |     0 | 83749 |     - |   115M |   0 |4757 |4607 |4629 |  43 | 16 |   6 |  20 | 3.617077e+04 | 3.681347e+04 |   1.78%| unknown
L26.4s|     1 |     0 | 86985 |     - |    rens|   0 |4757 |4529 |4629 |  43 | 18 |  10 |  20 | 3.617077e+04 | 3.625943e+04 |   0.25%| unknown
 26.4s|     1 |     0 | 86985 |     - |   116M |   0 |4757 |4529 |4629 |  43 | 18 |  10 |  20 | 3.617077e+04 | 3.625943e+04 |   0.25%| unknown
 26.4s|     1 |     0 | 86985 |     - |   116M |   0 |4757 |4529 |3650 |  43 | 18 |  10 |  20 | 3.617077e+04 | 3.625943e+04 |   0.25%| unknown
 26.4s|     1 |     0 | 86985 |     - |   116M |   0 |4757 |3550 |3630 |  43 | 19 |  10 |  20 | 3.617077e+04 | 3.625943e+04 |   0.25%| unknown
 26.4s|     1 |     0 | 87035 |     - |   116M |   0 |4757 |3550 |3631 |  44 | 20 |  10 |  20 | 3.617191e+04 | 3.625943e+04 |   0.24%| unknown
 26.4s|     1 |     0 | 87035 |     - |   116M |   0 |4757 |3550 |3624 |  44 | 20 |  10 |  20 | 3.617191e+04 | 3.625943e+04 |   0.24%| unknown
 time | node  | left  |LP iter|LP it/n|mem/heur|mdpt |vars |cons |rows |cuts |sepa|confs|strbr|  dualbound   | primalbound  |  gap   | compl. 
 26.9s|     1 |     0 | 88237 |     - |   117M |   0 |4757 |2718 |3624 |  44 | 20 |  13 |  21 | 3.620725e+04 | 3.625943e+04 |   0.14%| unknown
 26.9s|     1 |     0 | 88237 |     - |   117M |   0 |4757 |2718 |3005 |  44 | 20 |  13 |  21 | 3.620725e+04 | 3.625943e+04 |   0.14%| unknown
 26.9s|     1 |     0 | 88246 |     - |   117M |   0 |4757 |2394 |3007 |  47 | 21 |  13 |  21 | 3.620726e+04 | 3.625943e+04 |   0.14%| unknown
 26.9s|     1 |     0 | 88246 |     - |   117M |   0 |4757 |2394 |3005 |  47 | 21 |  13 |  21 | 3.620726e+04 | 3.625943e+04 |   0.14%| unknown
 26.9s|     1 |     0 | 88250 |     - |   117M |   0 |4757 |2394 |3006 |  48 | 22 |  13 |  21 | 3.620728e+04 | 3.625943e+04 |   0.14%| unknown
 26.9s|     1 |     0 | 88250 |     - |   117M |   0 |4757 |2394 |3004 |  48 | 22 |  13 |  21 | 3.620728e+04 | 3.625943e+04 |   0.14%| unknown
 34.0s|     1 |     2 | 88250 |     - |   117M |   0 |4757 |2346 |3004 |  48 | 22 |  13 |  98 | 3.620815e+04 | 3.625943e+04 |   0.14%| unknown
r35.4s|    11 |     1 | 91032 |4628.7 |rounding|   5 |4757 |2347 |2959 |  48 |  0 |  14 | 131 | 3.620849e+04 | 3.621378e+04 |   0.01%|  32.37%
*35.4s|    11 |     0 | 91032 |4628.7 |strongbr|   5 |4757 |2347 |2959 |  48 |  2 |  14 | 131 | 3.620849e+04 | 3.620892e+04 |   0.00%|  34.66%

SCIP Status        : problem is solved [optimal solution found]
Solving Time (sec) : 35.47
Solving Nodes      : 11 (total of 12 nodes in 2 runs)
Primal Bound       : +3.62089202257999e+04 (10 solutions)
Dual Bound         : +3.62089202257999e+04
Gap                : 0.00 %
Solve Status: optimal
Solve Time: 35.47 seconds
